bachelor/Metodos_de_Apoio_a_Decisao_AMPL/ass1_2_manel.dat
data;

set CRUDE := C1 C2  c3;
set INTERM := NAPHTHA OIL CGAS;
set GAS := G1 G2 G3;

param percentages:     
        NAPHTHA   OIL    CGAS:=
C1       0.50     0.42     0    
C2       0.60     0.38     0        
c3       0.55     0.41     0;


param:  purchasePrice     buyLimit    :=
C1          45              5000    
C2          35              5000
c3          25              5000;


param:  sellingPrice     gas_rating   demand :=
G1          70               10        3000
G2          60                9        2000
G3          50                8        1000;

param   octane_rate :=
NAPHTHA     10
OIL          6
CGAS        15;

param advertising_demand := 10;
param CrackCostPerUnit := 4;
param distillationCostPerUnit := 3;
param blendingCostPerUnit := 1;
param maxDistill := 14000;
param maxCrack := 3500;